k = 80;
b = 40;
AtomicConstraints =  [|
2, 3|
	2, 4|
	2, 5|
	2, 6|
	2, 7|
	2, 8|
	2, 9|
	2, 10|
	2, 21|
	2, 22|
	2, 24|
	2, 25|
	2, 26|
	2, 27|
	2, 28|
	2, 29|
	3, 4|
	3, 5|
	3, 6|
	3, 7|
	3, 8|
	3, 9|
	3, 10|
	3, 22|
	3, 24|
	3, 25|
	3, 26|
	3, 27|
	3, 28|
	3, 29|
	4, 5|
	4, 6|
	4, 7|
	4, 8|
	4, 9|
	4, 10|
	4, 24|
	4, 25|
	4, 26|
	4, 27|
	4, 28|
	4, 29|
	5, 6|
	5, 7|
	5, 8|
	5, 9|
	5, 10|
	5, 25|
	5, 26|
	5, 27|
	5, 28|
	5, 29|
	6, 7|
	6, 8|
	6, 9|
	6, 10|
	6, 26|
	6, 27|
	6, 28|
	6, 29|
	7, 8|
	7, 9|
	7, 10|
	7, 27|
	7, 28|
	7, 29|
	8, 9|
	8, 10|
	8, 28|
	8, 29|
	9, 10|
	9, 29|
	1, 2|
	1, 3|
	1, 4|
	1, 5|
	1, 6|
	1, 7|
	1, 8|
	1, 9|
	1, 10|
	1, 11|
	1, 13|
	1, 14|
	1, 15|
	1, 16|
	1, 17|
	1, 18|
	1, 19|
	1, 20|
	1, 21|
	1, 22|
	1, 23|
	1, 24|
	1, 25|
	1, 26|
	1, 27|
	1, 28|
	1, 29|
	1, 30|
	1, 31|
	1, 32|
	1, 33|
	1, 34|
	12, 2|
	12, 3|
	12, 4|
	12, 5|
	12, 6|
	12, 7|
	12, 8|
	12, 9|
	12, 10|
	12, 11|
	12, 13|
	12, 14|
	12, 15|
	12, 16|
	12, 17|
	12, 18|
	12, 19|
	12, 20|
	12, 21|
	12, 22|
	12, 23|
	12, 24|
	12, 25|
	12, 26|
	12, 27|
	12, 28|
	12, 29|
	12, 30|
	12, 31|
	12, 32|
	12, 33|
	12, 34|
	13, 2|
	13, 3|
	13, 4|
	13, 5|
	13, 6|
	13, 7|
	13, 8|
	13, 9|
	13, 10|
	13, 14|
	13, 15|
	13, 16|
	13, 17|
	13, 18|
	13, 19|
	13, 20|
	13, 21|
	13, 22|
	13, 23|
	13, 24|
	13, 25|
	13, 26|
	13, 27|
	13, 28|
	13, 29|
	13, 30|
	13, 31|
	13, 32|
	13, 33|
	13, 34|
	11, 2|
	11, 3|
	11, 4|
	11, 5|
	11, 6|
	11, 7|
	11, 8|
	11, 9|
	11, 10|
	11, 14|
	11, 15|
	11, 16|
	11, 17|
	11, 18|
	11, 19|
	11, 20|
	11, 21|
	11, 22|
	11, 23|
	11, 24|
	11, 25|
	11, 26|
	11, 27|
	11, 28|
	11, 29|
	11, 30|
	11, 31|
	11, 32|
	11, 33|
	11, 34|
	14, 2|
	14, 3|
	14, 4|
	14, 5|
	14, 6|
	14, 7|
	14, 8|
	14, 9|
	14, 10|
	14, 15|
	14, 16|
	14, 17|
	14, 18|
	14, 19|
	14, 20|
	14, 21|
	14, 22|
	14, 24|
	14, 25|
	14, 26|
	14, 27|
	14, 28|
	14, 29|
	14, 30|
	14, 31|
	14, 32|
	14, 33|
	14, 34|
	15, 2|
	15, 3|
	15, 4|
	15, 5|
	15, 6|
	15, 7|
	15, 8|
	15, 9|
	15, 10|
	15, 16|
	15, 17|
	15, 18|
	15, 19|
	15, 20|
	15, 21|
	15, 22|
	15, 24|
	15, 25|
	15, 26|
	15, 27|
	15, 28|
	15, 29|
	15, 31|
	15, 32|
	15, 33|
	15, 34|
	16, 2|
	16, 3|
	16, 4|
	16, 5|
	16, 6|
	16, 7|
	16, 8|
	16, 9|
	16, 10|
	16, 17|
	16, 18|
	16, 19|
	16, 20|
	16, 21|
	16, 22|
	16, 24|
	16, 25|
	16, 26|
	16, 27|
	16, 28|
	16, 29|
	16, 32|
	16, 33|
	16, 34|
	17, 2|
	17, 3|
	17, 4|
	17, 5|
	17, 6|
	17, 7|
	17, 8|
	17, 9|
	17, 10|
	17, 18|
	17, 19|
	17, 20|
	17, 21|
	17, 22|
	17, 24|
	17, 25|
	17, 26|
	17, 27|
	17, 28|
	17, 29|
	17, 33|
	17, 34|
	18, 2|
	18, 3|
	18, 4|
	18, 5|
	18, 6|
	18, 7|
	18, 8|
	18, 9|
	18, 10|
	18, 19|
	18, 20|
	18, 21|
	18, 22|
	18, 24|
	18, 25|
	18, 26|
	18, 27|
	18, 28|
	18, 29|
	18, 34|
	19, 2|
	19, 3|
	19, 4|
	19, 5|
	19, 6|
	19, 7|
	19, 8|
	19, 9|
	19, 10|
	19, 20|
	19, 21|
	19, 22|
	19, 24|
	19, 25|
	19, 26|
	19, 27|
	19, 28|
	19, 29|
	20, 3|
	20, 4|
	20, 5|
	20, 6|
	20, 7|
	20, 8|
	20, 9|
	20, 10|
	20, 21|
	20, 22|
	20, 24|
	20, 25|
	20, 26|
	20, 27|
	20, 28|
	20, 29|
	21, 4|
	21, 5|
	21, 6|
	21, 7|
	21, 8|
	21, 9|
	21, 10|
	21, 22|
	21, 24|
	21, 25|
	21, 26|
	21, 27|
	21, 28|
	21, 29|
	22, 5|
	22, 6|
	22, 7|
	22, 8|
	22, 9|
	22, 10|
	22, 24|
	22, 25|
	22, 26|
	22, 27|
	22, 28|
	22, 29|
	24, 6|
	24, 7|
	24, 8|
	24, 9|
	24, 10|
	24, 25|
	24, 26|
	24, 27|
	24, 28|
	24, 29|
	25, 7|
	25, 8|
	25, 9|
	25, 10|
	25, 26|
	25, 27|
	25, 28|
	25, 29|
	26, 8|
	26, 9|
	26, 10|
	26, 27|
	26, 28|
	26, 29|
	27, 9|
	27, 10|
	27, 28|
	27, 29|
	28, 10|
	28, 29|
	23, 2|
	23, 3|
	23, 4|
	23, 5|
	23, 6|
	23, 7|
	23, 8|
	23, 9|
	23, 10|
	23, 15|
	23, 16|
	23, 17|
	23, 18|
	23, 19|
	23, 20|
	23, 21|
	23, 22|
	23, 24|
	23, 25|
	23, 26|
	23, 27|
	23, 28|
	23, 29|
	23, 30|
	23, 31|
	23, 32|
	23, 33|
	23, 34|
	30, 2|
	30, 3|
	30, 4|
	30, 5|
	30, 6|
	30, 7|
	30, 8|
	30, 9|
	30, 10|
	30, 16|
	30, 17|
	30, 18|
	30, 19|
	30, 20|
	30, 21|
	30, 22|
	30, 24|
	30, 25|
	30, 26|
	30, 27|
	30, 28|
	30, 29|
	30, 31|
	30, 32|
	30, 33|
	30, 34|
	31, 2|
	31, 3|
	31, 4|
	31, 5|
	31, 6|
	31, 7|
	31, 8|
	31, 9|
	31, 10|
	31, 17|
	31, 18|
	31, 19|
	31, 20|
	31, 21|
	31, 22|
	31, 24|
	31, 25|
	31, 26|
	31, 27|
	31, 28|
	31, 29|
	31, 32|
	31, 33|
	31, 34|
	32, 2|
	32, 3|
	32, 4|
	32, 5|
	32, 6|
	32, 7|
	32, 8|
	32, 9|
	32, 10|
	32, 18|
	32, 19|
	32, 20|
	32, 21|
	32, 22|
	32, 24|
	32, 25|
	32, 26|
	32, 27|
	32, 28|
	32, 29|
	32, 33|
	32, 34|
	33, 2|
	33, 3|
	33, 4|
	33, 5|
	33, 6|
	33, 7|
	33, 8|
	33, 9|
	33, 10|
	33, 19|
	33, 20|
	33, 21|
	33, 22|
	33, 24|
	33, 25|
	33, 26|
	33, 27|
	33, 28|
	33, 29|
	33, 34|
	34, 2|
	34, 3|
	34, 4|
	34, 5|
	34, 6|
	34, 7|
	34, 8|
	34, 9|
	34, 10|
	34, 20|
	34, 21|
	34, 22|
	34, 24|
	34, 25|
	34, 26|
	34, 27|
	34, 28|
	34, 29|
	54, 71|
	54, 63|
	54, 70|
	55, 71|
	55, 63|
	55, 70|
	56, 71|
	56, 70|
	35, 68|
	36, 68|
	36, 69|
	37, 68|
	37, 69|
	37, 49|
	44, 71|
	44, 68|
	44, 69|
	44, 49|
	44, 50|
	44, 55|
	44, 56|
	44, 35|
	44, 36|
	44, 37|
	44, 70|
	45, 68|
	45, 69|
	45, 49|
	45, 50|
	45, 56|
	45, 35|
	45, 36|
	45, 37|
	75, 68|
	75, 69|
	75, 49|
	75, 50|
	75, 35|
	75, 36|
	75, 37|
	76, 68|
	76, 69|
	76, 49|
	76, 50|
	76, 35|
	76, 36|
	76, 37|
	77, 68|
	77, 69|
	77, 49|
	77, 50|
	77, 36|
	77, 37|
	60, 54|
	60, 71|
	60, 68|
	60, 69|
	60, 49|
	60, 50|
	60, 55|
	60, 56|
	60, 35|
	60, 36|
	60, 37|
	60, 63|
	60, 70|
	60, 44|
	60, 42|
	60, 43|
	61, 71|
	61, 68|
	61, 69|
	61, 49|
	61, 50|
	61, 55|
	61, 56|
	61, 35|
	61, 36|
	61, 37|
	61, 70|
	61, 44|
	61, 45|
	61, 42|
	61, 43|
	62, 71|
	62, 68|
	62, 69|
	62, 49|
	62, 50|
	62, 55|
	62, 56|
	62, 35|
	62, 36|
	62, 37|
	62, 44|
	62, 45|
	62, 75|
	62, 43|
	64, 68|
	64, 69|
	64, 49|
	64, 50|
	64, 35|
	64, 36|
	64, 37|
	64, 44|
	64, 45|
	64, 75|
	64, 76|
	42, 54|
	42, 71|
	42, 68|
	42, 69|
	42, 49|
	42, 50|
	42, 55|
	42, 56|
	42, 35|
	42, 36|
	42, 37|
	42, 63|
	42, 70|
	43, 54|
	43, 71|
	43, 68|
	43, 69|
	43, 49|
	43, 50|
	43, 55|
	43, 56|
	43, 35|
	43, 36|
	43, 37|
	43, 70|
	48, 71|
	48, 68|
	48, 69|
	48, 49|
	48, 50|
	48, 56|
	48, 35|
	48, 36|
	48, 37|
	48, 44|
	48, 45|
	48, 75|
	48, 76|
	48, 77|
	48, 61|
	48, 62|
	48, 64|
	65, 54|
	65, 71|
	65, 68|
	65, 69|
	65, 49|
	65, 50|
	65, 55|
	65, 56|
	65, 35|
	65, 36|
	65, 37|
	65, 63|
	65, 70|
	65, 60|
	65, 44|
	65, 45|
	65, 75|
	65, 76|
	65, 77|
	65, 61|
	65, 62|
	65, 64|
	65, 42|
	65, 43|
	65, 48|
	65, 46|
	65, 47|
	66, 71|
	66, 68|
	66, 69|
	66, 49|
	66, 50|
	66, 55|
	66, 56|
	66, 35|
	66, 36|
	66, 37|
	66, 70|
	66, 44|
	66, 45|
	66, 75|
	66, 76|
	66, 77|
	66, 61|
	66, 62|
	66, 64|
	66, 43|
	66, 48|
	66, 46|
	66, 47|
	67, 71|
	67, 68|
	67, 69|
	67, 49|
	67, 50|
	67, 56|
	67, 35|
	67, 36|
	67, 37|
	67, 44|
	67, 45|
	67, 75|
	67, 76|
	67, 77|
	67, 62|
	67, 64|
	67, 48|
	67, 47|
	38, 68|
	38, 69|
	38, 49|
	38, 50|
	38, 35|
	38, 36|
	38, 37|
	38, 75|
	38, 76|
	38, 77|
	39, 68|
	39, 69|
	39, 49|
	39, 50|
	39, 35|
	39, 36|
	39, 37|
	39, 75|
	39, 76|
	39, 77|
	40, 68|
	40, 69|
	40, 49|
	40, 50|
	40, 36|
	40, 37|
	40, 76|
	40, 77|
	46, 54|
	46, 71|
	46, 68|
	46, 69|
	46, 49|
	46, 50|
	46, 55|
	46, 56|
	46, 35|
	46, 36|
	46, 37|
	46, 63|
	46, 70|
	46, 60|
	46, 44|
	46, 45|
	46, 75|
	46, 76|
	46, 77|
	46, 61|
	46, 62|
	46, 64|
	46, 42|
	46, 43|
	47, 71|
	47, 68|
	47, 69|
	47, 49|
	47, 50|
	47, 55|
	47, 56|
	47, 35|
	47, 36|
	47, 37|
	47, 70|
	47, 60|
	47, 44|
	47, 45|
	47, 75|
	47, 76|
	47, 77|
	47, 61|
	47, 62|
	47, 64|
	47, 43|
	74, 68|
	74, 69|
	74, 49|
	74, 50|
	74, 35|
	74, 36|
	74, 37|
	74, 44|
	74, 45|
	74, 75|
	74, 76|
	74, 77|
	74, 62|
	74, 64|
	74, 48|
	74, 67|
	74, 38|
	74, 39|
	74, 40|
	78, 68|
	78, 69|
	78, 49|
	78, 50|
	78, 35|
	78, 36|
	78, 37|
	78, 45|
	78, 75|
	78, 76|
	78, 77|
	78, 64|
	78, 38|
	78, 39|
	78, 40|
	79, 68|
	79, 69|
	79, 49|
	79, 50|
	79, 35|
	79, 36|
	79, 37|
	79, 75|
	79, 76|
	79, 77|
	79, 38|
	79, 39|
	79, 40|
	80, 68|
	80, 69|
	80, 49|
	80, 50|
	80, 35|
	80, 36|
	80, 37|
	80, 75|
	80, 76|
	80, 77|
	80, 38|
	80, 39|
	80, 40|
	53, 69|
	53, 49|
	53, 50|
	53, 36|
	53, 37|
	53, 76|
	53, 77|
	53, 39|
	53, 40|
	52, 49|
	52, 50|
	52, 37|
	52, 77|
	52, 40|
	41, 50|
	57, 71|
	57, 68|
	57, 69|
	57, 49|
	57, 50|
	57, 55|
	57, 56|
	57, 35|
	57, 36|
	57, 37|
	57, 70|
	57, 60|
	57, 44|
	57, 45|
	57, 75|
	57, 76|
	57, 77|
	57, 61|
	57, 62|
	57, 64|
	57, 42|
	57, 43|
	57, 65|
	57, 48|
	57, 66|
	57, 67|
	57, 38|
	57, 39|
	57, 40|
	57, 46|
	57, 47|
	57, 74|
	57, 72|
	57, 73|
	58, 71|
	58, 68|
	58, 69|
	58, 49|
	58, 50|
	58, 56|
	58, 35|
	58, 36|
	58, 37|
	58, 44|
	58, 45|
	58, 75|
	58, 76|
	58, 77|
	58, 61|
	58, 62|
	58, 64|
	58, 43|
	58, 48|
	58, 66|
	58, 67|
	58, 38|
	58, 39|
	58, 40|
	58, 47|
	58, 74|
	58, 78|
	58, 72|
	58, 73|
	59, 68|
	59, 69|
	59, 49|
	59, 50|
	59, 35|
	59, 36|
	59, 37|
	59, 44|
	59, 45|
	59, 75|
	59, 76|
	59, 77|
	59, 62|
	59, 64|
	59, 48|
	59, 67|
	59, 38|
	59, 39|
	59, 40|
	59, 74|
	59, 78|
	59, 79|
	59, 73|
	72, 71|
	72, 68|
	72, 69|
	72, 49|
	72, 50|
	72, 55|
	72, 56|
	72, 35|
	72, 36|
	72, 37|
	72, 70|
	72, 60|
	72, 44|
	72, 45|
	72, 75|
	72, 76|
	72, 77|
	72, 61|
	72, 62|
	72, 64|
	72, 42|
	72, 43|
	72, 65|
	72, 48|
	72, 66|
	72, 67|
	72, 38|
	72, 39|
	72, 40|
	72, 46|
	72, 47|
	73, 71|
	73, 68|
	73, 69|
	73, 49|
	73, 50|
	73, 56|
	73, 35|
	73, 36|
	73, 37|
	73, 44|
	73, 45|
	73, 75|
	73, 76|
	73, 77|
	73, 61|
	73, 62|
	73, 64|
	73, 43|
	73, 48|
	73, 66|
	73, 67|
	73, 38|
	73, 39|
	73, 40|
	73, 47|];
DisjunctiveConstraints =  [|2, 49, 2, 9|
	2, 50, 2, 10|
	2, 48, 2, 8|
	2, 46, 2, 6|
	2, 47, 2, 7|
	3, 49, 3, 9|
	3, 50, 3, 10|
	3, 48, 3, 8|
	3, 47, 3, 7|
	4, 49, 4, 9|
	4, 50, 4, 10|
	4, 48, 4, 8|
	5, 49, 5, 9|
	5, 50, 5, 10|
	6, 49, 6, 9|
	6, 50, 6, 10|
	7, 50, 7, 10|
	1, 32, 1, 72|
	1, 33, 1, 73|
	1, 71, 1, 31|
	1, 70, 1, 30|
	1, 44, 1, 4|
	1, 45, 1, 5|
	1, 42, 1, 2|
	1, 43, 1, 3|
	1, 48, 1, 8|
	1, 46, 1, 6|
	1, 47, 1, 7|
	1, 74, 1, 34|
	12, 17, 12, 57|
	12, 18, 12, 58|
	12, 23, 63, 12|
	12, 30, 70, 12|
	12, 31, 71, 12|
	12, 32, 72, 12|
	12, 49, 12, 9|
	12, 50, 12, 10|
	12, 55, 12, 15|
	12, 56, 12, 16|
	12, 44, 12, 4|
	12, 45, 12, 5|
	12, 60, 12, 20|
	12, 61, 12, 21|
	12, 62, 12, 22|
	12, 64, 12, 24|
	12, 43, 12, 3|
	12, 48, 12, 8|
	12, 65, 12, 25|
	12, 66, 12, 26|
	12, 67, 12, 27|
	12, 46, 12, 6|
	12, 47, 12, 7|
	12, 59, 12, 19|
	13, 17, 13, 57|
	13, 18, 13, 58|
	13, 23, 63, 13|
	13, 30, 70, 13|
	13, 31, 71, 13|
	13, 32, 72, 13|
	13, 33, 73, 13|
	13, 49, 13, 9|
	13, 50, 13, 10|
	13, 56, 13, 16|
	13, 44, 13, 4|
	13, 45, 13, 5|
	13, 60, 13, 20|
	13, 61, 13, 21|
	13, 62, 13, 22|
	13, 64, 13, 24|
	13, 48, 13, 8|
	13, 65, 13, 25|
	13, 66, 13, 26|
	13, 67, 13, 27|
	13, 46, 13, 6|
	13, 47, 13, 7|
	13, 59, 13, 19|
	11, 32, 11, 72|
	11, 33, 11, 73|
	11, 71, 11, 31|
	11, 44, 11, 4|
	11, 45, 11, 5|
	11, 42, 11, 2|
	11, 43, 11, 3|
	11, 48, 11, 8|
	11, 46, 11, 6|
	11, 47, 11, 7|
	11, 74, 11, 34|
	14, 2, 42, 14|
	14, 18, 14, 58|
	14, 31, 71, 14|
	14, 32, 72, 14|
	14, 33, 73, 14|
	14, 34, 74, 14|
	14, 68, 14, 28|
	14, 49, 14, 9|
	14, 50, 14, 10|
	14, 60, 14, 20|
	14, 61, 14, 21|
	14, 62, 14, 22|
	14, 64, 14, 24|
	14, 48, 14, 8|
	14, 65, 14, 25|
	14, 66, 14, 26|
	14, 67, 14, 27|
	14, 46, 14, 6|
	14, 47, 14, 7|
	14, 59, 14, 19|
	15, 2, 42, 15|
	15, 3, 43, 15|
	15, 32, 72, 15|
	15, 33, 73, 15|
	15, 34, 74, 15|
	15, 68, 15, 28|
	15, 49, 15, 9|
	15, 50, 15, 10|
	15, 60, 15, 20|
	15, 61, 15, 21|
	15, 62, 15, 22|
	15, 64, 15, 24|
	15, 48, 15, 8|
	15, 65, 15, 25|
	15, 66, 15, 26|
	15, 67, 15, 27|
	15, 47, 15, 7|
	15, 59, 15, 19|
	16, 2, 42, 16|
	16, 3, 43, 16|
	16, 4, 44, 16|
	16, 33, 73, 16|
	16, 34, 74, 16|
	16, 68, 16, 28|
	16, 69, 16, 29|
	16, 49, 16, 9|
	16, 50, 16, 10|
	16, 60, 16, 20|
	16, 61, 16, 21|
	16, 62, 16, 22|
	16, 64, 16, 24|
	16, 48, 16, 8|
	16, 65, 16, 25|
	16, 66, 16, 26|
	16, 67, 16, 27|
	17, 2, 42, 17|
	17, 3, 43, 17|
	17, 4, 44, 17|
	17, 5, 45, 17|
	17, 34, 74, 17|
	17, 68, 17, 28|
	17, 69, 17, 29|
	17, 49, 17, 9|
	17, 50, 17, 10|
	17, 61, 17, 21|
	17, 62, 17, 22|
	17, 64, 17, 24|
	17, 65, 17, 25|
	17, 66, 17, 26|
	17, 67, 17, 27|
	18, 2, 42, 18|
	18, 3, 43, 18|
	18, 4, 44, 18|
	18, 5, 45, 18|
	18, 6, 46, 18|
	18, 68, 18, 28|
	18, 69, 18, 29|
	18, 49, 18, 9|
	18, 50, 18, 10|
	18, 62, 18, 22|
	18, 64, 18, 24|
	18, 65, 18, 25|
	18, 66, 18, 26|
	18, 67, 18, 27|
	19, 3, 43, 19|
	19, 4, 44, 19|
	19, 5, 45, 19|
	19, 6, 46, 19|
	19, 7, 47, 19|
	19, 68, 19, 28|
	19, 69, 19, 29|
	19, 50, 19, 10|
	19, 64, 19, 24|
	19, 65, 19, 25|
	19, 66, 19, 26|
	19, 67, 19, 27|
	20, 4, 44, 20|
	20, 5, 45, 20|
	20, 6, 46, 20|
	20, 7, 47, 20|
	20, 8, 48, 20|
	20, 68, 20, 28|
	20, 69, 20, 29|
	20, 65, 20, 25|
	20, 66, 20, 26|
	20, 67, 20, 27|
	21, 5, 45, 21|
	21, 6, 46, 21|
	21, 7, 47, 21|
	21, 8, 48, 21|
	21, 68, 21, 28|
	21, 69, 21, 29|
	21, 66, 21, 26|
	21, 67, 21, 27|
	22, 6, 46, 22|
	22, 7, 47, 22|
	22, 8, 48, 22|
	22, 68, 22, 28|
	22, 69, 22, 29|
	22, 67, 22, 27|
	24, 7, 47, 24|
	24, 8, 48, 24|
	24, 9, 49, 24|
	24, 68, 24, 28|
	24, 69, 24, 29|
	25, 8, 48, 25|
	25, 9, 49, 25|
	25, 10, 50, 25|
	25, 68, 25, 28|
	25, 69, 25, 29|
	26, 9, 49, 26|
	26, 10, 50, 26|
	27, 9, 49, 27|
	27, 10, 50, 27|
	23, 33, 23, 73|
	23, 44, 23, 4|
	23, 45, 23, 5|
	23, 42, 23, 2|
	23, 43, 23, 3|
	23, 48, 23, 8|
	23, 46, 23, 6|
	23, 47, 23, 7|
	23, 74, 23, 34|
	30, 49, 30, 9|
	30, 44, 30, 4|
	30, 45, 30, 5|
	30, 42, 30, 2|
	30, 43, 30, 3|
	30, 48, 30, 8|
	30, 46, 30, 6|
	30, 47, 30, 7|
	30, 74, 30, 34|
	31, 49, 31, 9|
	31, 50, 31, 10|
	31, 44, 31, 4|
	31, 45, 31, 5|
	31, 42, 31, 2|
	31, 43, 31, 3|
	31, 48, 31, 8|
	31, 46, 31, 6|
	31, 47, 31, 7|
	32, 49, 32, 9|
	32, 50, 32, 10|
	32, 44, 32, 4|
	32, 45, 32, 5|
	32, 43, 32, 3|
	32, 48, 32, 8|
	32, 46, 32, 6|
	32, 47, 32, 7|
	33, 49, 33, 9|
	33, 50, 33, 10|
	33, 44, 33, 4|
	33, 45, 33, 5|
	33, 48, 33, 8|
	33, 46, 33, 6|
	33, 47, 33, 7|
	34, 49, 34, 9|
	34, 50, 34, 10|
	34, 45, 34, 5|
	34, 48, 34, 8|
	34, 46, 34, 6|
	34, 47, 34, 7|
	69, 68, 69, 49|
	49, 69, 49, 50|
	55, 54, 55, 56|
	56, 55, 56, 35|
	35, 56, 35, 36|
	36, 35, 36, 37|
	70, 63, 70, 71|
	44, 71, 44, 31|
	44, 55, 15, 44|
	44, 56, 44, 16|
	44, 70, 30, 44|
	44, 43, 44, 45|
	45, 71, 31, 45|
	45, 56, 16, 45|
	45, 44, 45, 75|
	75, 45, 75, 76|
	76, 68, 76, 28|
	76, 35, 75, 76|
	76, 75, 76, 77|
	77, 68, 77, 28|
	77, 69, 77, 29|
	77, 36, 76, 77|
	60, 54, 60, 14|
	60, 55, 60, 15|
	60, 63, 60, 23|
	60, 70, 60, 30|
	61, 71, 61, 31|
	61, 54, 14, 61|
	61, 55, 61, 15|
	61, 56, 61, 16|
	61, 63, 23, 61|
	61, 70, 61, 30|
	61, 60, 61, 62|
	62, 71, 62, 31|
	62, 55, 15, 62|
	62, 56, 62, 16|
	62, 63, 23, 62|
	62, 70, 30, 62|
	62, 61, 62, 64|
	64, 71, 31, 64|
	64, 55, 15, 64|
	64, 56, 16, 64|
	64, 70, 30, 64|
	42, 54, 42, 14|
	42, 55, 42, 15|
	42, 63, 42, 23|
	42, 70, 42, 30|
	43, 71, 43, 31|
	43, 54, 14, 43|
	43, 55, 43, 15|
	43, 56, 43, 16|
	43, 63, 23, 43|
	43, 70, 43, 30|
	43, 42, 43, 44|
	48, 54, 14, 48|
	48, 63, 23, 48|
	48, 44, 48, 4|
	48, 45, 48, 5|
	48, 61, 21, 48|
	48, 62, 48, 22|
	48, 64, 48, 24|
	48, 42, 2, 48|
	48, 43, 3, 48|
	65, 71, 65, 31|
	65, 55, 65, 15|
	65, 70, 65, 30|
	65, 60, 65, 20|
	65, 61, 65, 21|
	65, 42, 65, 2|
	65, 43, 65, 3|
	66, 71, 66, 31|
	66, 56, 66, 16|
	66, 44, 66, 4|
	66, 60, 20, 66|
	66, 61, 66, 21|
	66, 62, 66, 22|
	66, 42, 2, 66|
	66, 43, 66, 3|
	66, 65, 66, 67|
	67, 54, 14, 67|
	67, 45, 67, 5|
	67, 60, 20, 67|
	67, 61, 21, 67|
	67, 62, 67, 22|
	67, 64, 67, 24|
	67, 42, 2, 67|
	67, 43, 3, 67|
	67, 66, 67, 38|
	38, 71, 31, 38|
	38, 68, 38, 28|
	38, 55, 15, 38|
	38, 56, 16, 38|
	38, 35, 38, 75|
	38, 70, 30, 38|
	38, 44, 4, 38|
	38, 45, 5, 38|
	38, 64, 24, 38|
	38, 67, 38, 39|
	39, 71, 31, 39|
	39, 68, 39, 28|
	39, 69, 39, 29|
	39, 56, 16, 39|
	39, 36, 39, 76|
	39, 45, 5, 39|
	39, 75, 35, 39|
	39, 38, 39, 40|
	40, 69, 40, 29|
	40, 49, 40, 9|
	40, 35, 75, 40|
	40, 37, 40, 77|
	40, 75, 35, 40|
	40, 76, 36, 40|
	46, 71, 46, 31|
	46, 55, 46, 15|
	46, 70, 46, 30|
	46, 60, 46, 20|
	46, 61, 46, 21|
	46, 42, 46, 2|
	46, 43, 46, 3|
	47, 71, 47, 31|
	47, 56, 47, 16|
	47, 44, 47, 4|
	47, 60, 20, 47|
	47, 61, 47, 21|
	47, 62, 47, 22|
	47, 42, 2, 47|
	47, 43, 47, 3|
	47, 46, 47, 48|
	74, 45, 74, 5|
	74, 60, 20, 74|
	74, 64, 74, 24|
	74, 66, 26, 74|
	74, 67, 74, 27|
	74, 46, 6, 74|
	74, 47, 7, 74|
	74, 73, 74, 78|
	78, 68, 78, 28|
	78, 60, 20, 78|
	78, 61, 21, 78|
	78, 42, 2, 78|
	78, 43, 3, 78|
	78, 48, 8, 78|
	78, 67, 27, 78|
	78, 47, 7, 78|
	78, 74, 78, 79|
	79, 68, 79, 28|
	79, 69, 79, 29|
	79, 54, 14, 79|
	79, 35, 79, 75|
	79, 63, 23, 79|
	79, 44, 4, 79|
	79, 61, 21, 79|
	79, 62, 22, 79|
	79, 43, 3, 79|
	79, 48, 8, 79|
	79, 38, 79, 78|
	79, 78, 79, 80|
	80, 69, 80, 29|
	80, 49, 80, 9|
	80, 55, 15, 80|
	80, 36, 80, 76|
	80, 70, 30, 80|
	80, 44, 4, 80|
	80, 45, 5, 80|
	80, 62, 22, 80|
	80, 64, 24, 80|
	80, 38, 78, 80|
	80, 39, 80, 79|
	80, 79, 80, 53|
	53, 71, 31, 53|
	53, 49, 53, 9|
	53, 50, 53, 10|
	53, 56, 16, 53|
	53, 37, 53, 77|
	53, 45, 5, 53|
	53, 75, 35, 53|
	53, 64, 24, 53|
	53, 39, 79, 53|
	53, 40, 53, 80|
	53, 80, 53, 52|
	52, 50, 52, 10|
	52, 75, 35, 52|
	52, 76, 36, 52|
	52, 40, 80, 52|
	52, 53, 52, 41|
	41, 35, 75, 41|
	41, 76, 36, 41|
	41, 77, 37, 41|
	41, 52, 41, 51|
	51, 36, 76, 51|
	51, 37, 77, 51|
	51, 77, 37, 51|
	57, 71, 57, 31|
	57, 56, 57, 16|
	57, 44, 57, 4|
	57, 61, 57, 21|
	57, 62, 57, 22|
	57, 43, 57, 3|
	57, 65, 57, 25|
	57, 66, 57, 26|
	57, 47, 57, 7|
	58, 44, 58, 4|
	58, 45, 58, 5|
	58, 62, 58, 22|
	58, 64, 58, 24|
	58, 48, 58, 8|
	58, 65, 25, 58|
	58, 66, 58, 26|
	58, 67, 58, 27|
	58, 46, 6, 58|
	58, 57, 58, 59|
	59, 45, 59, 5|
	59, 64, 59, 24|
	59, 65, 25, 59|
	59, 66, 26, 59|
	59, 67, 59, 27|
	59, 46, 6, 59|
	59, 47, 7, 59|
	72, 71, 72, 31|
	72, 56, 72, 16|
	72, 44, 72, 4|
	72, 61, 72, 21|
	72, 62, 72, 22|
	72, 43, 72, 3|
	72, 65, 72, 25|
	72, 66, 72, 26|
	72, 46, 72, 6|
	72, 47, 72, 7|
	73, 44, 73, 4|
	73, 45, 73, 5|
	73, 62, 73, 22|
	73, 64, 73, 24|
	73, 48, 73, 8|
	73, 65, 25, 73|
	73, 66, 73, 26|
	73, 67, 73, 27|
	73, 46, 6, 73|
	73, 47, 73, 7|
	73, 72, 73, 74|];
SoftAtomicConstraints =  [|
1, 12|
11, 13|
23, 14|
30, 15|
31, 16|
32, 17|
33, 18|
34, 19|
2, 20|
3, 21|
4, 22|
5, 24|
6, 25|
7, 26|
8, 27|
9, 28|
10, 29|
56, 35|
35, 36|
36, 37|
67, 38|
38, 39|
39, 40|
52, 41|
42, 43|
43, 44|
44, 45|
46, 47|
47, 48|
69, 49|
49, 50|
41, 51|
53, 52|
80, 53|
54, 55|
55, 56|
57, 58|
58, 59|
60, 61|
61, 62|
62, 64|
65, 66|
66, 67|
71, 68|
68, 69|
63, 70|
70, 71|
72, 73|
73, 74|
45, 75|
75, 76|
76, 77|
74, 78|
78, 79|
79, 80|];
DirectSuccessors =  [];
